COMMENT : 48 capitals of the US (Padberg/Rinaldi)
6734 2233 5530 401 3082 7608 7573 7265 6898 1112 5468 5989 4706 4612 6347 6107 7611 7462 7732 5900 4483 6101 5199 1633 4307 675 7555 7541 3177 7352 7545 3245 6426 4608 23 7248 7762 7392 3484 6271 4985 1916 7280 7509 10 6807 5185 3023
1453 10 1424 841 1644 4458 3716 1268 1885 2049 2606 2873 2674 2035 2683 669 5184 3590 4723 3561 3369 1110 2182 2809 2322 1006 4819 3981 756 4506 2801 3305 3173 1198 2216 3779 4595 2244 2829 2135 140 1569 4899 3239 2676 2993 3258 1942
126807 126807 124003 122494 113613 110322 110322 110322 110322 109568 109568 108096 104584 104584 100501 100501 100501 99860.3 97054.1 86958.2 86958.2 86958.2 86958.2 86958.2 86958.2 84979.1 84979.1 84793.1 84793.1 84793.1 84793.1 84793.1 84793.1 84793.1 84793.1 83273.6 83273.6 83273.6 83273.6 81507.9 81504 80529 80529 77762.6 77762.6 77762.6 77762.6 77762.6 77680.2 77680.2 77680.2 77680.2 76834.4 72978.3 72978.3 72978.3 72266.9 71735 71735 69595.3 69595.3 69595.3 69454.1 69454.1 69454.1 69454.1 69454.1 69454.1 68910.3 68297.4 68297.4 68297.4 66791 66791 65137.3 65137.3 65137.3 65137.3 63744.7 63744.7 63744.7 63057.5 63057.5 63057.5 59904.6 59904.6 59904.6 59904.6 59904.6 59904.6 59904.6 58414.2 58414.2 58414.2 57180.8 57180.8 57180.8 57180.8 57180.8 57180.8 57180.8 57180.8 57180.8 57180.8 56493.6 56493.6 56493.6 56493.6 56493.6 56493.6 53995.5 53995.5 53995.5 53995.5 53995.5 53995.5 53995.5 53591.9 53591.9 53591.9 53591.9 53591.9 52654.3 52654.3 52654.3 52654.3 52654.3 52654.3 52654.3 52494.5 52494.5 52494.5 52494.5 52494.5 52493.8 52493.8 52493.8 52493.8 52493.8 52165.8 52165.8 52165.8 52165.8 51315 51315 51315 51315 51315 51315 51315 51315 51315 51315 50746.6 50746.6 50746.6 50746.6 50330.8 50084.3 50084.3 50084.3 50084.3 50084.3 50084.3 50084.3 49685 49685 49685 49685 49685 49685 49685 49685 49685 49685 49685 49685 49685 49685 49685 49685 49177.4 49155.9 49155.9 49155.9 49027.5 49027.5 49027.5 49027.5 49027.5 49027.5 49027.5 49027.5 49027.5 48893.3 48893.3 48694.7 48694.7 48694.7 48694.5 48694.5 48694.5 48694.5 48694.5 48694.5 48694.5 48694.5 48694.5 48694.5 48694.5 48694.5 48694.5 47748.1 47748.1 47748.1 47748.1 47748.1 47748.1 47664.3 47394.6 47394.6 47394.6 47394.6 46946.4 46946.4 46897.6 46897.6 46897.6 46897.6 46897.6 46897.6 46897.6 46897.6 46897.6 46897.6 46838.2 46515.8 46515.8 46515.8 46515.8 46515.8 46515.8 46515.8 46206.7 46017.7 46017.7 46017.7 46017.7 45386.2 45386.2 45386.2 45386.2 45386.2 45386.2 45386.2 45386.2 45386.2 45386.2 45386.2 45386.2 45386.2 45386.2 45386.2 45386.2 45386.2 44627.2 44627.2 44627.2 44627.2 44627.2 44627.2 44627.2 44627.2 44627.2 44398.8 44398.8 44398.8 44398.8 44398.8 44398.8 44398.8 44398.8 44398.8 44335.5 44335.5 44335.5 44335.5 44335.5 44335.5 44335.5 44335.5 44335.5 44335.5 44335.5 44335.5 44335.5 43842.9 43842.9 43842.9 43234 43234 43234 43234 43234 43234 43234 43234 43234 43234 43234 43234 43234 43234 43234 43234 43234 43234 43234 43234 43234 43234 43234 43234 43234 43234 43234 43234 43234 43234 43234 43234 43234 43234 43234 43234 43234 43234 43234 43234 43234 43234 43234 43123 43123 43123 43123 43123 43123 43123 43123 43123 43063 42995.5 42995.5 42132.5 42132.5 42132.5 42132.5 42132.5 42132.5 42132.5 42132.5 42132.5 42132.5 42132.5 42132.5 42132.5 42132.5 42021.6 41894.1 41894.1 41894.1 41894.1 41894.1 41894.1 41894.1 41894.1 41894.1 41894.1 41894.1 41894.1 41894.1 41894.1 41894.1 41894.1 41894.1 41894.1 41636 41636 41636 41636 41636 41636 41636 41636 41636 41636 41636 41636 41636 41636 41636 41636 41636 41636 41636 41636 41600.9 41565.8 41565.8 41565.8 41565.8 41553.2 41553.2 41553.2 41553.2 41503.4 41503.4 41503 41503 41503 41503 41503 41503 41503 41503 41420.2 41420.2 41420.2 41420.2 41420.2 41420.2 41420.2 40909.9 40909.9 40909.9 40777 40777 40771.8 40771.8 40771.8 40771.8 40771.8 40771.8 40691.2 40691.2 40689 40689 40689 40128.6 40128.6 40128.6 40128.6 40128.6 40128.6 40128.6 40128.6 40128.6 40128.6 40128.6 40045.8 40045.8 40045.8 40045.8 40045.8 40045.8 40045.8 40045.8 40045.8 40045.8 40045.8 39934.8 39840.6 39840.6 39840.6 39840.6 39840.6 39840.6 39840.6 39840.6 39840.6 39840.6 39840.6 39840.6 39840.6 39840.6 39703 39703 39703 39703 39703 39703 39703 39703 39703 39479.8 39479.8 39479.8 39479.8 39479.8 39479.8 39479.8 39479.8 39479.8 39479.8 39479.8 39479.8 39479.8 39479.8 39479.8 39479.8 39479.8 39157.4 39157.4 39157.4 39157.4 39157.4 39157.4 39157.4 39157.4 39157.4 39157.4 39157.4 39157.4 39157.4 39157.4 39157.4 39157.4 39157.4 39157.4 39157.4 39157.4 39157.4 39157.4 39157.4 38389.2 38389.2 38389.2 38389.2 38389.2 38389.2 38389.2 38389.2 38389.2 38389.2 38389.2 38389.2 38389.2 38389.2 38389.2 38389.2 38389.2 38389.2 38389.2 38389.2 38389.2 38389.2 38389.2 38389.2 38389.2 38389.2 38389.2 38389.2 38389.2 38389.2 38389.2 38389.2 38389.2 38389.2 38389.2 38389.2 38389.2 38389.2 38333.6 38333.6 38333.6 38333.6 38333.6 38333.6 38333.6 38333.6 38262.8 38262.8 38232.4 38232.4 38232.4 38232.4 38232.4 38145.9 38145.9 38145.9 38145.9 38139.1 38139.1 38139.1 38139.1 37976.5 37976.5 37976.5 37976.5 37976.5 37976.5 37976.5 37976.5 37976.5 37976.5 37976.5 37948.7 37948.7 37948.7 37948.7 37948.7 37948.7 37948.7 37948.7 37948.7 37948.7 37948.7 37935 37935 37935 37824.9 37824.9 37824.9 37824.9 37824.9 37824.9 37684.1 37684.1 37684.1 37684.1 37684.1 37684.1 37684.1 37684.1 37684.1 37684.1 37684.1 37684.1 37684.1 37684.1 37684.1 37684.1 37684.1 37684.1 37684.1 37684.1 37684.1 37684.1 37684.1 37684.1 37684.1 37684.1 37684.1 37684.1 37684.1 37684.1 37684.1 37684.1 37684.1 37684.1 37684.1 37684.1 37684.1 37684.1 37684.1 37684.1 37684.1 37684.1 37684.1 37684.1 37684.1 37684.1 37684.1 37684.1 37684.1 37684.1 37684.1 37684.1 37684.1 37684.1 37684.1 37684.1 37684.1 37684.1 37684.1 37684.1 37684.1 37684.1 37684.1 37684.1 37684.1 37684.1 37684.1 37684.1 37684.1 37684.1 37684.1 37684.1 37684.1 37684.1 37684.1 37684.1 37684.1 37684.1 37684.1 37684.1 37684.1 37684.1 37684.1 37684.1 37684.1 37684.1 37684.1 37684.1 37684.1 37684.1 37684.1 37672.3 37672.3 37672.3 37672.3 37672.3 37672.3 37672.3 37672.3 37672.3 37672.3 37672.3 37672.3 37603.9 37603.9 37603.9 37603.9 37603.9 37603.9 37603.9 37603.9 37603.9 37603.9 37603.9 37603.9 37518.3 37518.3 37518.3 37518.3 37518.3 37427.6 37427.6 37427.6 37427.6 37427.6 37427.6 37427.6 37427.6 37427.6 37427.6 37427.6 37427.6 37427.6 37427.6 37427.6 37427.6 37427.6 37427.6 37427.6 37427.6 37427.6 37427.6 37427.6 37427.6 37427.6 37427.6 37427.6 37427.6 37427.6 37427.6 37427.6 37427.6 37427.6 37427.6 37427.6 37427.6 37427.6 37427.6 37427.6 37427.6 37427.6 37427.6 37427.6 37427.6 37427.6 37427.6 37427.6 37427.6 37427.6 37427.6 37427.6 37427.6 37427.6 37427.6 37427.6 37427.6 37427.6 37427.6 37427.6 37427.6 37427.6 37427.6 37427.6 37427.6 37427.6 37427.6 37427.6 37427.6 37427.6 37427.6 37427.6 37328.2 37328.2 37328.2 37328.2 37328.2 37328.2 37328.2 37328.2 37328.2 37328.2 37328.2 37328.2 37328.2 37328.2 37328.2 37328.2 37328.2 37328.2 37328.2 37328.2 37328.2 37328.2 37328.2 37328.2 37328.2 37328.2 37328.2 37328.2 37328.2 37328.2 37328.2 37328.2 37328.2 37328.2 37328.2 37328.2 37328.2 37328.2 37328.2 37328.2 37328.2 37328.2 37328.2 37328.2 37328.2 37328.2 37328.2 37328.2 37328.2 37328.2 37328.2 37328.2 37328.2 37328.2 37328.2 37250.8 37250.8 37084.9 37084.9 37084.9 37084.9 37084.9 37084.9 37084.9 37084.9 37084.9 37084.9 37084.9 37084.9 37084.9 37084.9 37084.9 37084.9 37084.9 37084.9 37084.9 37084.9 37028.7 37028.7 37028.7 37028.7 37028.7 37028.7 37028.7 37028.7 37028.7 37028.7 37028.7 37028.7 36566.2 36566.2 36566.2 36566.2 36566.2 36566.2 36566.2 36566.2 36566.2 36566.2 36566.2 36566.2 36566.2 36566.2 36566.2 36566.2 36566.2 36566.2 36566.2 36566.2 36566.2 36566.2 36566.2 36566.2 36566.2 36566.2 36566.2 36566.2 36566.2 36566.2 36566.2 36566.2 36566.2 36566.2 36566.2 36566.2 36566.2 36566.2 36044 36044 36044 36044 36044 36044 36044 36044 36044 36044 36044 36044 36044 36044 36044 36044 36044 36044 36044 36044 35979.6 35979.6 35979.6 35979.6 35979.6 35979.6 35979.6 35979.6 35979.6 35979.6 35979.6 35979.6 35979.6 35979.6 35979.6 35979.6 35979.6 35979.6 35979.6 35979.6 35979.6 35979.6 35979.6 35979.6 35979.6 35979.6 35979.6 35979.6 35979.6 35979.6 35979.6 35979.6 35979.6 35979.6 35979.6 35979.6 35979.6 35979.6 35979.6 35979.6 35979.6 35979.6 35979.6 35979.6 35979.6 35979.6 35979.6 35979.6 35979.6 35979.6 35979.6 35979.6 35979.6 35979.6 35979.6 35979.6 35979.6 35979.6 35979.6 35979.6 35979.6 35979.6 35979.6 35979.6 35979.6 35979.6 35979.6 35979.6 35979.6 35979.6 35979.6 35979.6 35979.6 35979.6 35979.6 35979.6 35979.6 35979.6 35979.6 35979.6 35979.6 35979.6 35979.6 35979.6 35979.6 35979.6 35979.6 35979.6 35979.6 35979.6 35979.6 35979.6 35979.6 35979.6 35979.6 35979.6 35979.6 35979.6 35979.6 35979.6 35979.6 35979.6 35979.6 35979.6 35979.6 35979.6 35979.6 35979.6 35979.6 35979.6 35979.6 35979.6 35979.6 35979.6 35979.6 35979.6 35979.6 35979.6 35979.6 35979.6 35979.6 35979.6 35979.6 35979.6 35979.6 35979.6 35979.6 35979.6 35979.6 35979.6 35979.6 35979.6 35979.6 35979.6 35979.6 35979.6 35979.6 35979.6 35979.6 35979.6 35979.6 35979.6 35979.6 35979.6 35979.6 35979.6 35979.6 35979.6 35979.6 35979.6 35979.6 35979.6 35979.6 35979.6 35979.6 35979.6 35979.6 35979.6 35979.6 35979.6 35979.6 35979.6 35979.6 35979.6 35979.6 35979.6 35979.6 35979.6 35979.6 35979.6 35979.6 35979.6 35979.6 35979.6 35979.6 35979.6 35979.6 35979.6 35979.6 35979.6 35979.6 35979.6 35979.6 35979.6 35979.6 35979.6 35979.6 35979.6 35979.6 35979.6 35979.6 35979.6 35979.6 35979.6 35979.6 35979.6 35979.6 35979.6 35979.6 35979.6 35979.6 35979.6 35979.6 35979.6 35979.6 35979.6 35979.6 35979.6 35979.6 35979.6 35979.6 35979.6 35979.6 35979.6 35979.6 35979.6 35979.6 35979.6 35979.6 35979.6 35979.6 35979.6 35979.6 35979.6 35979.6 35979.6 35979.6 35979.6 35979.6 35979.6 35979.6 35979.6 35979.6 35979.6 35979.6 35979.6 35979.6 35979.6 35979.6 35979.6 35979.6 35979.6 35979.6 35979.6 35979.6 35979.6 35979.6 35979.6 35979.6 35979.6 35979.6 35979.6 35979.6 35979.6 35979.6 35979.6 35979.6 35979.6 35979.6 35979.6 35979.6 35979.6 35979.6 35979.6 35979.6 35979.6 35979.6 35979.6 35979.6 35979.6 35979.6 35979.6 35979.6 35979.6 35979.6 35979.6 35979.6 35979.6 35979.6 35979.6 35979.6 35979.6 35979.6 35979.6 35979.6 35979.6 35979.6 35979.6 35979.6 35979.6 35979.6 35979.6 35979.6 35979.6 35979.6 35979.6 35979.6 35979.6 35979.6 35979.6 35979.6 35979.6 35979.6 35979.6 35979.6 35979.6 35979.6 35979.6 35979.6 35979.6 35979.6 35979.6 35979.6 35979.6 35979.6 35979.6 35979.6 35979.6 35979.6 35979.6 35979.6 35979.6 35979.6 35979.6 35979.6 35979.6 35979.6 35979.6 35979.6 35979.6 35979.6 35979.6 35979.6 35979.6 35979.6 35979.6 35979.6 35979.6 35979.6 35979.6 35979.6 35979.6 35979.6 35979.6 35979.6 35979.6 35979.6 35979.6 35979.6 35979.6 35979.6 35979.6 35979.6 35979.6 35979.6 35979.6 35979.6 35979.6 35979.6 35979.6 35979.6 35979.6 35979.6 35979.6 35979.6 35979.6 35979.6 35979.6 35979.6 35979.6 35979.6 35979.6 35979.6 35979.6 35979.6 35979.6 35979.6 35979.6 35979.6 35979.6 35979.6 35979.6 35979.6 35979.6 35979.6 35979.6 35979.6 35979.6 35979.6 35979.6 35979.6 35979.6 35979.6 35979.6 35979.6 35979.6 35979.6 35979.6 35979.6 35979.6 35979.6 35979.6 35979.6 35979.6 35979.6 35979.6 35979.6 35979.6 35979.6 35979.6 35979.6 35979.6 35979.6 35979.6 35979.6 35979.6 35979.6 35979.6 35979.6 35979.6 35979.6 35979.6 35979.6 35979.6 35979.6 35979.6 35979.6 35979.6 35979.6 35979.6 35979.6 35979.6 35979.6 35979.6 35979.6 35979.6 35979.6 35979.6 35979.6 35979.6 35979.6 35979.6 35979.6 35979.6 35979.6 35979.6 35979.6 35979.6 35979.6 35979.6 35979.6 35979.6 35979.6 35979.6 35979.6 35979.6 35979.6 35979.6 35979.6 35979.6 35979.6 35979.6 35979.6 35979.6 35979.6 35979.6 35979.6 35979.6 35979.6 35979.6 35979.6 35979.6 35979.6 35979.6 35979.6 35979.6 35979.6 35979.6 35979.6 35979.6 35979.6 35979.6 35979.6 35979.6 35979.6 35979.6 35979.6 35979.6 35979.6 35979.6 35979.6 35979.6 35979.6 35979.6 35979.6 35979.6 35979.6 35979.6 35979.6 35979.6 35979.6 35979.6 35979.6 35979.6 35979.6 35979.6 35979.6 35979.6 35979.6 35979.6 35979.6 35979.6 35979.6 35979.6 35979.6 35979.6 35979.6 35979.6 35979.6 35979.6 35979.6 35979.6 35979.6 35979.6 35979.6 35979.6 35979.6 35979.6 35979.6 35979.6 35979.6 35979.6 35979.6 35979.6 35979.6 35979.6 35979.6 35979.6 35979.6 35979.6 35979.6 35979.6 35979.6 35979.6 35979.6 35979.6 35979.6 35979.6 35979.6 35979.6 35979.6 35979.6 35979.6 35979.6 35979.6 35979.6 35979.6 35979.6 35979.6 35979.6 35979.6 35979.6 35979.6 35979.6 35979.6 35979.6 35979.6 35979.6 35979.6 35979.6 35979.6 35979.6 35979.6 35979.6 35979.6 35979.6 35979.6 35979.6 35979.6 35979.6 35979.6 35979.6 35979.6 35979.6 35979.6 35979.6 35979.6 35979.6 35979.6 35979.6 35979.6 35979.6 35979.6 35979.6 35979.6 35979.6 35979.6 35979.6 35979.6 35979.6 35979.6 35979.6 35979.6 35979.6 35979.6 35979.6 35979.6 35979.6 35979.6 35979.6 35979.6 35979.6 35979.6 35979.6 35979.6 35979.6 35979.6 35979.6 35979.6 35979.6 35979.6 35979.6 35979.6 35979.6 35979.6 35979.6 35979.6 35979.6 35979.6 35979.6 35979.6 35979.6 35979.6 35979.6 35979.6 35979.6 35979.6 35979.6 35979.6 35979.6 35979.6 35979.6 35979.6 35979.6 35979.6 35979.6 35979.6 35979.6 35979.6 35979.6 35979.6 35979.6 35979.6 35979.6 35979.6 35979.6 35979.6 35979.6 35979.6 35979.6 35979.6 35979.6 35979.6 35979.6 35979.6 35979.6 35979.6 35979.6 35979.6 35979.6 35979.6 35979.6 35979.6 35979.6 35979.6 35979.6 35979.6 35979.6 35979.6 35979.6 35979.6 35979.6 35979.6 35979.6 35979.6 35979.6 35979.6 35979.6 35979.6 35979.6 35979.6 35979.6 35979.6 35979.6 35979.6 35979.6 35979.6 35979.6 35979.6 35979.6 35979.6 35979.6 35979.6 35979.6 35979.6 35979.6 35979.6 35979.6 35979.6 35979.6 35979.6 35979.6 35979.6 35979.6 35979.6 35979.6 35979.6 35979.6 35979.6 35979.6 35979.6 35979.6 35979.6 35979.6 35979.6 35979.6 35979.6 35979.6 35979.6 35979.6 35979.6 35979.6 35979.6 35979.6 35979.6 35979.6 35979.6 35979.6 35979.6 35979.6 35979.6 35979.6 35979.6 35979.6 35979.6 35979.6 35979.6 35979.6 35979.6 35979.6 35979.6 35979.6 35979.6 35979.6 35979.6 35979.6 35979.6 35979.6 35979.6 35979.6 35979.6 35979.6 35979.6 35979.6 35979.6 35979.6 35979.6 35979.6 35979.6 35979.6 35979.6 35979.6 35979.6 35979.6 35979.6 35979.6 35979.6 35979.6 35979.6 35979.6 35979.6 35979.6 35979.6 35979.6 35979.6 35979.6 35979.6 35979.6 35979.6 35979.6 35979.6 35979.6 35979.6 35979.6 35979.6 35979.6 35979.6 35979.6 35979.6 35979.6 35979.6 35979.6 35979.6 35979.6 35979.6 35979.6 35979.6 35979.6 35979.6 35979.6 35979.6 35979.6 35979.6 35979.6 35979.6 35979.6 35979.6 35979.6 35979.6 35979.6 35979.6 35979.6 35979.6 35979.6 35979.6 35979.6 35979.6 35979.6 35979.6 35979.6 35979.6 35979.6 35979.6 35979.6 35979.6 35979.6 35979.6 35979.6 35979.6 35979.6 35979.6 35979.6 35979.6 35979.6 35979.6 35979.6 35979.6 35979.6 35979.6 35979.6 35979.6 35979.6 35979.6 35979.6 35979.6 35979.6 35979.6 35979.6 35979.6 35979.6 35979.6 35979.6 35979.6 35979.6 35979.6 35979.6 35979.6 35979.6 35979.6 35979.6 35979.6 35979.6 35979.6 35979.6 35979.6 35979.6 35979.6 35979.6 35979.6 35979.6 35979.6 35979.6 35979.6 35979.6 35979.6 35979.6 35979.6 35979.6 35979.6 35979.6 35979.6 35979.6 35979.6 35979.6 35979.6 35979.6 35979.6 35979.6 35979.6 35979.6 35979.6 35979.6 35979.6 35979.6 35979.6 35979.6 35979.6 35979.6 35979.6 35979.6 35979.6 35979.6 35979.6 35979.6 35979.6 35979.6 35979.6 35979.6 35979.6 35979.6 35979.6 35979.6 35979.6 35979.6 35979.6 35979.6 35979.6 35979.6 35979.6 35979.6 35979.6 35979.6 35979.6 35979.6 35979.6 35979.6 35979.6 35979.6 35979.6 35979.6 35979.6 35979.6 35979.6 35979.6 35979.6 35979.6 35979.6 35979.6 35979.6 35979.6 35979.6 35979.6 35979.6 35979.6 35979.6 35979.6 35979.6 35979.6 35979.6 35979.6 35979.6 35979.6 35979.6 35979.6 35979.6 35979.6 35979.6 35979.6 35979.6 35979.6 35979.6 35979.6 35979.6 35979.6 35979.6 35979.6 35979.6 35979.6 35979.6 35979.6 35979.6 35979.6 35979.6 35979.6 35979.6 35979.6 35979.6 35979.6 35979.6 35979.6 35979.6 35979.6 35979.6 35979.6 35979.6 35979.6 35979.6 35979.6 35979.6 35979.6 35979.6 35979.6 35979.6 35979.6 35979.6 35979.6 35979.6 35979.6 35979.6 35979.6 35979.6 35979.6 35979.6 35979.6 35979.6 35979.6 35979.6 35979.6 35979.6 35979.6 35979.6 35979.6 35979.6 35979.6 35979.6 35979.6 35979.6 35979.6 35979.6 35979.6 35979.6 35979.6 35979.6 35979.6 35979.6
7 18 44 31 38 15 12 40 9 8 1 22 16 41 34 3 11 23 14 25 39 32 24 10 45 35 4 26 2 29 42 5 48 13 21 47 20 33 46 36 6 37 19 27 17 43 30 28
1 8 38 31 44 18 7 28 6 37 19 27 17 43 30 36 46 33 20 47 21 32 39 48 5 42 24 10 45 35 4 26 2 29 34 41 16 22 3 23 14 25 13 11 12 15 40 9
